#######################
Slurm job id: 17497813_244
Running on machine: p29
Running cmd: /nfs/shared/static-builds/gurobi1202 SOFTMEMLIMIT=125 MIPFocus=2 Presolve=2 TimeLimit=500 seed=13 /nfs/models/miplib2010/k16x240.mps.bz2
#######################
Set parameter TimeLimit to value 500
Set parameter SoftMemLimit to value 125
Set parameter MIPFocus to value 2
Set parameter LogFile to value 1202-MIPFocus2-Presolve2-TimeLimit500-k16x240-3.log
Set parameter Presolve to value 2
Set parameter Seed to value 13
Using license file /opt/gurobi/gurobi.lic

Gurobi Optimizer version 12.0.2 build v12.0.2rc0 (linux64 - "Ubuntu 22.04.4 LTS")
Copyright (c) 2025, Gurobi Optimization, LLC

Read MPS format model from file /nfs/models/miplib2010/k16x240.mps.bz2
Reading time = 0.00 seconds
k16x240: 256 rows, 480 columns, 960 nonzeros

Using Gurobi shared library /nfs/shared/static-builds/gurobi1202

CPU model: Intel(R) Xeon(R) E-2388G CPU @ 3.20GHz, instruction set [SSE2|AVX|AVX2|AVX512]
Thread count: 8 physical cores, 16 logical processors, using up to 16 threads

Non-default parameters:
TimeLimit  500
SoftMemLimit  125
MIPFocus  2
Presolve  2
Seed  13

Optimize a model with 256 rows, 480 columns and 960 nonzeros
Model fingerprint: 0x4e80885f
Variable types: 240 continuous, 240 integer (240 binary)
Coefficient statistics:
  Matrix range     [1e+00, 1e+03]
  Objective range  [1e+00, 1e+03]
  Bounds range     [1e+00, 1e+03]
  RHS range        [4e+00, 4e+02]
Found heuristic solution: objective 25767.000000
Presolve time: 0.00s
Presolved: 256 rows, 480 columns, 960 nonzeros
Variable types: 240 continuous, 240 integer (240 binary)
Root relaxation presolve removed 241 rows and 240 columns
Root relaxation presolved: 15 rows, 240 columns, 450 nonzeros


Root relaxation: objective 2.769838e+03, 16 iterations, 0.00 seconds (0.00 work units)

    Nodes    |    Current Node    |     Objective Bounds      |     Work
 Expl Unexpl |  Obj  Depth IntInf | Incumbent    BestBd   Gap | It/Node Time

     0     0 2769.83800    0   14 25767.0000 2769.83800  89.3%     -    0s
H    0     0                    11359.000000 2769.83800  75.6%     -    0s
H    0     0                    11350.000000 2769.83800  75.6%     -    0s
H    0     0                    11261.000000 2769.83800  75.4%     -    0s
H    0     0                    11081.000000 2769.83800  75.0%     -    0s
     0     0 8116.87580    0   26 11081.0000 8116.87580  26.7%     -    0s
H    0     0                    11068.000000 8190.91086  26.0%     -    0s
H    0     0                    10942.000000 8190.91086  25.1%     -    0s
H    0     0                    10938.000000 8190.91086  25.1%     -    0s
H    0     0                    10930.000000 8190.91086  25.1%     -    0s
H    0     0                    10852.000000 8190.91086  24.5%     -    0s
H    0     0                    10848.000000 8190.91086  24.5%     -    0s
     0     0 8588.30479    0   25 10848.0000 8588.30479  20.8%     -    0s
     0     0 8613.92228    0   22 10848.0000 8613.92228  20.6%     -    0s
     0     0 8709.94047    0   22 10848.0000 8709.94047  19.7%     -    0s
H    0     0                    10846.000000 8718.33295  19.6%     -    0s
H    0     0                    10779.000000 8841.00340  18.0%     -    0s
     0     0 8841.00340    0   36 10779.0000 8841.00340  18.0%     -    0s
     0     0 8841.34133    0   27 10779.0000 8841.34133  18.0%     -    0s
     0     0 8919.07784    0   37 10779.0000 8919.07784  17.3%     -    0s
     0     0 8947.49358    0   37 10779.0000 8947.49358  17.0%     -    0s
     0     0 8968.98684    0   43 10779.0000 8968.98684  16.8%     -    0s
     0     0 8974.57166    0   39 10779.0000 8974.57166  16.7%     -    0s
     0     0 9054.96411    0   43 10779.0000 9054.96411  16.0%     -    0s
     0     0 9057.17381    0   43 10779.0000 9057.17381  16.0%     -    0s
H    0     0                    10681.000000 9057.17381  15.2%     -    0s
     0     0 9104.70333    0   29 10681.0000 9104.70333  14.8%     -    0s
     0     0 9110.26664    0   31 10681.0000 9110.26664  14.7%     -    0s
     0     0 9126.58293    0   35 10681.0000 9126.58293  14.6%     -    0s
     0     0 9127.23692    0   35 10681.0000 9127.23692  14.5%     -    0s
     0     2 9127.23692    0   35 10681.0000 9127.23692  14.5%     -    0s
H   61    72                    10678.000000 9213.28957  13.7%  50.1    0s
H  497   426                    10674.000000 9255.14247  13.3%  29.2    0s
 31343 10835     cutoff   39      10674.0000 10059.8248  5.75%  23.6    5s
 76249 15359 10562.8174   40    8 10674.0000 10269.4285  3.79%  24.5   10s
 113699  8485 10589.4569   36   29 10674.0000 10438.3406  2.21%  24.6   15s

Cutting planes:
  Gomory: 2
  Lift-and-project: 14
  Cover: 67
  Implied bound: 23
  Dual implied bound: 19
  MIR: 180
  Flow cover: 277
  Flow path: 40
  Inf proof: 1
  Zero half: 8
  Network: 43
  Relax-and-lift: 4

Explored 129285 nodes (3089740 simplex iterations) in 16.51 seconds (23.21 work units)
Thread count was 16 (of 16 available processors)

Solution count 10: 10674 10678 10681 ... 10942

Optimal solution found (tolerance 1.00e-04)
Best objective 1.067400000000e+04, best bound 1.067400000000e+04, gap 0.0000%
